c clasp version 2.1.1
c Reading from p29.cnf
c Solving...
s SATISFIABLE

c Models        : 1+    
c Time          : 4.457s (Solving: 3.64s 1st Model: 3.64s Unsat: 0.00s)
c CPU Time      : 4.440s
c Choices       : 35131
c Conflicts     : 17231
c Restarts      : 1      (Average: 17231.00 Last: 1222)

c Variables     : 232611 (Eliminated: 73053 Frozen:    0)
c Constraints   : 262673 (Binary: 65.0% Ternary: 33.6% Other:  1.4%)
c Lemmas        : 17231  (Binary:  0.0% Ternary:  0.1% Other: 99.8%)
c   Conflict    : 17231  (Average Length: 344.4) 
c   Loop        : 0      (Average Length: 0.0) 
c   Other       : 0      (Average Length: 0.0)
c   Deleted     : 4922  
